data;
set K:= K1 K2 K3 K4 K5 K6 K7 K8 K9 K10 ;

set F:= F1 F2 F3 ;

set Q:= Q1 Q2 ;

param T:= 45;
param V: 
	K1  K2  K3  K4  K5  K6  K7  K8  K9  K10 :=
Q1	1   1   1   1   1   1   0   0   0   0   
Q2	0   0   0   0   0   0   1   1   1   1   
; # if resorce k is of type q

param TF:= 
K1 6
K2 6
K3 6
K4 6
K5 6
K6 6
K7 12
K8 12
K9 12
K10 12
; # number of continuous time slots resource can fly

param TR:= 
K1 2
K2 2
K3 2
K4 2
K5 2
K6 2
K7 4
K8 4
K9 4
K10 4
; #  number of continuous time slots resource k needs to rest between flights

param P:= 
K1 36
K2 36
K3 36
K4 36
K5 36
K6 36
K7 36
K8 36
K9 36
K10 36
; #  number of continuous time slots a pilot can be present including rest times for resource k 

param N:= 
K1 4
K2 4
K3 4
K4 4
K5 4
K6 4
K7 2
K8 2
K9 2
K10 1
; # max number of flights resource k can fly in the total time period

param A: 
	K1  K2  K3  K4  K5  K6  K7  K8  K9  K10 :=
1	1   1   1   1   1   1   1   1   1   0   
2	1   1   1   1   1   1   1   1   1   0   
3	1   1   1   1   1   1   1   1   1   0   
4	1   1   1   1   1   1   1   1   1   0   
5	1   1   1   1   1   1   1   1   1   0   
6	1   1   1   1   1   1   1   1   1   0   
7	1   1   1   1   1   1   1   1   1   0   
8	1   1   1   1   1   1   1   1   1   0   
9	1   1   1   1   1   1   1   1   1   0   
10	1   1   1   1   1   1   1   1   1   0   
11	1   1   1   1   1   1   1   1   1   0   
12	1   1   1   1   1   1   1   1   1   0   
13	1   1   1   1   1   1   1   1   1   0   
14	1   1   1   1   1   1   1   1   1   0   
15	1   1   1   1   1   1   1   1   1   0   
16	1   1   1   1   1   1   1   1   1   0   
17	1   1   1   1   1   1   1   1   1   0   
18	1   1   1   1   1   1   1   1   1   1   
19	1   1   1   1   1   1   1   1   1   1   
20	1   1   1   1   1   1   1   1   1   1   
21	1   1   1   1   1   1   1   1   1   1   
22	1   1   1   1   1   1   1   1   1   1   
23	1   1   1   1   1   1   1   1   1   1   
24	1   1   1   1   1   1   1   1   1   1   
25	1   1   1   1   1   1   1   1   1   1   
26	1   1   1   1   1   1   1   1   1   1   
27	1   1   1   1   1   1   1   1   1   1   
28	1   1   1   1   1   1   1   1   1   1   
29	1   1   1   1   1   1   1   1   1   1   
30	1   1   1   1   1   1   1   1   1   1   
31	1   1   1   1   1   1   1   1   1   1   
32	1   1   1   1   1   1   1   1   1   1   
33	1   1   1   1   1   1   1   1   1   1   
34	1   1   1   1   1   1   1   1   1   1   
35	1   1   1   1   1   1   1   1   1   1   
36	1   1   1   1   1   1   1   1   1   1   
37	1   1   1   1   1   1   1   1   1   1   
38	1   1   1   1   1   1   1   1   1   1   
39	1   1   1   1   1   1   1   1   1   1   
40	1   1   1   1   1   1   1   1   1   1   
41	1   1   1   1   1   1   1   1   1   1   
42	1   1   1   1   1   1   1   1   1   1   
43	1   1   1   1   1   1   1   1   1   1   
44	1   1   1   1   1   1   1   1   1   1   
45	1   1   1   1   1   1   1   1   1   1   
; # availability of resorce k in time slot t

param B: 
	F1  F2  F3  :=
Q1	0   0   0   
Q2	0   0   0   
; # if front f requires resources of type q

param U: 
	F1  F2  F3  :=
K1	0   0   0   
K2	0   0   0   
K3	0   0   0   
K4	0   0   0   
K5	0   0   0   
K6	0   0   0   
K7	2   2   2   
K8	0   0   0   
K9	0   0   0   
K10	1   1   1   
; # transit time of resource

param C:= 
K1 900
K2 900
K3 900
K4 1500
K5 4500
K6 2100
K7 5500
K8 5500
K9 5500
K10 5500
; #  water capacity of resource k

param S:= 
F1 10
F2 8
F3 8
; # max number of resources that can fly at front f in the same time slot

param D:= 

[*,*,F1 ]:  K1    K2    K3    K4    K5    K6    K7    K8    K9    K10   :=
1           1.45  1.45  1.45  1.45  1.16  1.45  0.87  0.87  0.87  0.87  
2           1.45  1.45  1.45  1.45  1.16  1.45  0.87  0.87  0.87  0.87  
3           1.45  1.45  1.45  1.45  1.16  1.45  0.87  0.87  0.87  0.87  
4           1.45  1.45  1.45  1.45  1.16  1.45  0.87  0.87  0.87  0.87  
5           1.45  1.45  1.45  1.45  1.16  1.45  0.87  0.87  0.87  0.87  
6           1.45  1.45  1.45  1.45  1.16  1.45  0.87  0.87  0.87  0.87  
7           1.45  1.45  1.45  1.45  1.16  1.45  0.87  0.87  0.87  0.87  
8           1.45  1.45  1.45  1.45  1.16  1.45  0.87  0.87  0.87  0.87  
9           1.45  1.45  1.45  1.45  1.16  1.45  0.87  0.87  0.87  0.87  
10          1.45  1.45  1.45  1.45  1.16  1.45  0.87  0.87  0.87  0.87  
11          1.45  1.45  1.45  1.45  1.16  1.45  0.87  0.87  0.87  0.87  
12          1.45  1.45  1.45  1.45  1.16  1.45  0.87  0.87  0.87  0.87  
13          1.45  1.45  1.45  1.45  1.16  1.45  0.87  0.87  0.87  0.87  
14          1.45  1.45  1.45  1.45  1.16  1.45  0.87  0.87  0.87  0.87  
15          1.45  1.45  1.45  1.45  1.16  1.45  0.87  0.87  0.87  0.87  
16          1.45  1.45  1.45  1.45  1.16  1.45  0.87  0.87  0.87  0.87  
17          1.45  1.45  1.45  1.45  1.16  1.45  0.87  0.87  0.87  0.87  
18          1.45  1.45  1.45  1.45  1.16  1.45  0.87  0.87  0.87  0.87  
19          1.45  1.45  1.45  1.45  1.16  1.45  0.87  0.87  0.87  0.87  
20          1.45  1.45  1.45  1.45  1.16  1.45  0.87  0.87  0.87  0.87  
21          1.45  1.45  1.45  1.45  1.16  1.45  0.87  0.87  0.87  0.87  
22          1.45  1.45  1.45  1.45  1.16  1.45  0.87  0.87  0.87  0.87  
23          1.45  1.45  1.45  1.45  1.16  1.45  0.87  0.87  0.87  0.87  
24          1.45  1.45  1.45  1.45  1.16  1.45  0.87  0.87  0.87  0.87  
25          1.38  1.38  1.38  1.38  1.10  1.38  0.83  0.83  0.83  0.83  
26          1.38  1.38  1.38  1.38  1.10  1.38  0.83  0.83  0.83  0.83  
27          1.38  1.38  1.38  1.38  1.10  1.38  0.83  0.83  0.83  0.83  
28          1.38  1.38  1.38  1.38  1.10  1.38  0.83  0.83  0.83  0.83  
29          1.38  1.38  1.38  1.38  1.10  1.38  0.83  0.83  0.83  0.83  
30          1.38  1.38  1.38  1.38  1.10  1.38  0.83  0.83  0.83  0.83  
31          1.38  1.38  1.38  1.38  1.10  1.38  0.83  0.83  0.83  0.83  
32          1.38  1.38  1.38  1.38  1.10  1.38  0.83  0.83  0.83  0.83  
33          1.38  1.38  1.38  1.38  1.10  1.38  0.83  0.83  0.83  0.83  
34          1.45  1.45  1.45  1.45  1.16  1.45  0.87  0.87  0.87  0.87  
35          1.45  1.45  1.45  1.45  1.16  1.45  0.87  0.87  0.87  0.87  
36          1.45  1.45  1.45  1.45  1.16  1.45  0.87  0.87  0.87  0.87  
37          1.45  1.45  1.45  1.45  1.16  1.45  0.87  0.87  0.87  0.87  
38          1.45  1.45  1.45  1.45  1.16  1.45  0.87  0.87  0.87  0.87  
39          1.45  1.45  1.45  1.45  1.16  1.45  0.87  0.87  0.87  0.87  
40          1.45  1.45  1.45  1.45  1.16  1.45  0.87  0.87  0.87  0.87  
41          1.45  1.45  1.45  1.45  1.16  1.45  0.87  0.87  0.87  0.87  
42          1.45  1.45  1.45  1.45  1.16  1.45  0.87  0.87  0.87  0.87  
43          1.45  1.45  1.45  1.45  1.16  1.45  0.87  0.87  0.87  0.87  
44          1.45  1.45  1.45  1.45  1.16  1.45  0.87  0.87  0.87  0.87  
45          1.45  1.45  1.45  1.45  1.16  1.45  0.87  0.87  0.87  0.87  

[*,*,F2 ]:  K1    K2    K3    K4    K5    K6    K7    K8    K9    K10   :=
1           1.45  1.45  1.45  1.45  1.16  1.45  0.87  0.87  0.87  0.87  
2           1.45  1.45  1.45  1.45  1.16  1.45  0.87  0.87  0.87  0.87  
3           1.45  1.45  1.45  1.45  1.16  1.45  0.87  0.87  0.87  0.87  
4           1.45  1.45  1.45  1.45  1.16  1.45  0.87  0.87  0.87  0.87  
5           1.45  1.45  1.45  1.45  1.16  1.45  0.87  0.87  0.87  0.87  
6           1.45  1.45  1.45  1.45  1.16  1.45  0.87  0.87  0.87  0.87  
7           1.45  1.45  1.45  1.45  1.16  1.45  0.87  0.87  0.87  0.87  
8           1.45  1.45  1.45  1.45  1.16  1.45  0.87  0.87  0.87  0.87  
9           1.45  1.45  1.45  1.45  1.16  1.45  0.87  0.87  0.87  0.87  
10          1.45  1.45  1.45  1.45  1.16  1.45  0.87  0.87  0.87  0.87  
11          1.45  1.45  1.45  1.45  1.16  1.45  0.87  0.87  0.87  0.87  
12          1.45  1.45  1.45  1.45  1.16  1.45  0.87  0.87  0.87  0.87  
13          1.45  1.45  1.45  1.45  1.16  1.45  0.87  0.87  0.87  0.87  
14          1.45  1.45  1.45  1.45  1.16  1.45  0.87  0.87  0.87  0.87  
15          1.45  1.45  1.45  1.45  1.16  1.45  0.87  0.87  0.87  0.87  
16          1.45  1.45  1.45  1.45  1.16  1.45  0.87  0.87  0.87  0.87  
17          1.45  1.45  1.45  1.45  1.16  1.45  0.87  0.87  0.87  0.87  
18          1.45  1.45  1.45  1.45  1.16  1.45  0.87  0.87  0.87  0.87  
19          1.45  1.45  1.45  1.45  1.16  1.45  0.87  0.87  0.87  0.87  
20          1.45  1.45  1.45  1.45  1.16  1.45  0.87  0.87  0.87  0.87  
21          1.45  1.45  1.45  1.45  1.16  1.45  0.87  0.87  0.87  0.87  
22          1.45  1.45  1.45  1.45  1.16  1.45  0.87  0.87  0.87  0.87  
23          1.45  1.45  1.45  1.45  1.16  1.45  0.87  0.87  0.87  0.87  
24          1.45  1.45  1.45  1.45  1.16  1.45  0.87  0.87  0.87  0.87  
25          1.38  1.38  1.38  1.38  1.10  1.38  0.83  0.83  0.83  0.83  
26          1.38  1.38  1.38  1.38  1.10  1.38  0.83  0.83  0.83  0.83  
27          1.38  1.38  1.38  1.38  1.10  1.38  0.83  0.83  0.83  0.83  
28          1.38  1.38  1.38  1.38  1.10  1.38  0.83  0.83  0.83  0.83  
29          1.38  1.38  1.38  1.38  1.10  1.38  0.83  0.83  0.83  0.83  
30          1.38  1.38  1.38  1.38  1.10  1.38  0.83  0.83  0.83  0.83  
31          1.38  1.38  1.38  1.38  1.10  1.38  0.83  0.83  0.83  0.83  
32          1.38  1.38  1.38  1.38  1.10  1.38  0.83  0.83  0.83  0.83  
33          1.38  1.38  1.38  1.38  1.10  1.38  0.83  0.83  0.83  0.83  
34          1.45  1.45  1.45  1.45  1.16  1.45  0.87  0.87  0.87  0.87  
35          1.45  1.45  1.45  1.45  1.16  1.45  0.87  0.87  0.87  0.87  
36          1.45  1.45  1.45  1.45  1.16  1.45  0.87  0.87  0.87  0.87  
37          1.45  1.45  1.45  1.45  1.16  1.45  0.87  0.87  0.87  0.87  
38          1.45  1.45  1.45  1.45  1.16  1.45  0.87  0.87  0.87  0.87  
39          1.45  1.45  1.45  1.45  1.16  1.45  0.87  0.87  0.87  0.87  
40          1.45  1.45  1.45  1.45  1.16  1.45  0.87  0.87  0.87  0.87  
41          1.45  1.45  1.45  1.45  1.16  1.45  0.87  0.87  0.87  0.87  
42          1.45  1.45  1.45  1.45  1.16  1.45  0.87  0.87  0.87  0.87  
43          1.45  1.45  1.45  1.45  1.16  1.45  0.87  0.87  0.87  0.87  
44          1.45  1.45  1.45  1.45  1.16  1.45  0.87  0.87  0.87  0.87  
45          1.45  1.45  1.45  1.45  1.16  1.45  0.87  0.87  0.87  0.87  

[*,*,F3 ]:  K1    K2    K3    K4    K5    K6    K7    K8    K9    K10   :=
1           1.52  1.52  1.52  1.52  1.21  1.52  0.91  0.91  0.91  0.91  
2           1.52  1.52  1.52  1.52  1.21  1.52  0.91  0.91  0.91  0.91  
3           1.52  1.52  1.52  1.52  1.21  1.52  0.91  0.91  0.91  0.91  
4           1.52  1.52  1.52  1.52  1.21  1.52  0.91  0.91  0.91  0.91  
5           1.52  1.52  1.52  1.52  1.21  1.52  0.91  0.91  0.91  0.91  
6           1.52  1.52  1.52  1.52  1.21  1.52  0.91  0.91  0.91  0.91  
7           1.52  1.52  1.52  1.52  1.21  1.52  0.91  0.91  0.91  0.91  
8           1.52  1.52  1.52  1.52  1.21  1.52  0.91  0.91  0.91  0.91  
9           1.52  1.52  1.52  1.52  1.21  1.52  0.91  0.91  0.91  0.91  
10          1.52  1.52  1.52  1.52  1.21  1.52  0.91  0.91  0.91  0.91  
11          1.52  1.52  1.52  1.52  1.21  1.52  0.91  0.91  0.91  0.91  
12          1.52  1.52  1.52  1.52  1.21  1.52  0.91  0.91  0.91  0.91  
13          1.52  1.52  1.52  1.52  1.21  1.52  0.91  0.91  0.91  0.91  
14          1.52  1.52  1.52  1.52  1.21  1.52  0.91  0.91  0.91  0.91  
15          1.52  1.52  1.52  1.52  1.21  1.52  0.91  0.91  0.91  0.91  
16          1.52  1.52  1.52  1.52  1.21  1.52  0.91  0.91  0.91  0.91  
17          1.52  1.52  1.52  1.52  1.21  1.52  0.91  0.91  0.91  0.91  
18          1.52  1.52  1.52  1.52  1.21  1.52  0.91  0.91  0.91  0.91  
19          1.52  1.52  1.52  1.52  1.21  1.52  0.91  0.91  0.91  0.91  
20          1.52  1.52  1.52  1.52  1.21  1.52  0.91  0.91  0.91  0.91  
21          1.52  1.52  1.52  1.52  1.21  1.52  0.91  0.91  0.91  0.91  
22          1.52  1.52  1.52  1.52  1.21  1.52  0.91  0.91  0.91  0.91  
23          1.52  1.52  1.52  1.52  1.21  1.52  0.91  0.91  0.91  0.91  
24          1.52  1.52  1.52  1.52  1.21  1.52  0.91  0.91  0.91  0.91  
25          1.44  1.44  1.44  1.44  1.15  1.44  0.86  0.86  0.86  0.86  
26          1.44  1.44  1.44  1.44  1.15  1.44  0.86  0.86  0.86  0.86  
27          1.44  1.44  1.44  1.44  1.15  1.44  0.86  0.86  0.86  0.86  
28          1.44  1.44  1.44  1.44  1.15  1.44  0.86  0.86  0.86  0.86  
29          1.44  1.44  1.44  1.44  1.15  1.44  0.86  0.86  0.86  0.86  
30          1.44  1.44  1.44  1.44  1.15  1.44  0.86  0.86  0.86  0.86  
31          1.44  1.44  1.44  1.44  1.15  1.44  0.86  0.86  0.86  0.86  
32          1.44  1.44  1.44  1.44  1.15  1.44  0.86  0.86  0.86  0.86  
33          1.44  1.44  1.44  1.44  1.15  1.44  0.86  0.86  0.86  0.86  
34          1.52  1.52  1.52  1.52  1.21  1.52  0.91  0.91  0.91  0.91  
35          1.52  1.52  1.52  1.52  1.21  1.52  0.91  0.91  0.91  0.91  
36          1.52  1.52  1.52  1.52  1.21  1.52  0.91  0.91  0.91  0.91  
37          1.52  1.52  1.52  1.52  1.21  1.52  0.91  0.91  0.91  0.91  
38          1.52  1.52  1.52  1.52  1.21  1.52  0.91  0.91  0.91  0.91  
39          1.52  1.52  1.52  1.52  1.21  1.52  0.91  0.91  0.91  0.91  
40          1.52  1.52  1.52  1.52  1.21  1.52  0.91  0.91  0.91  0.91  
41          1.52  1.52  1.52  1.52  1.21  1.52  0.91  0.91  0.91  0.91  
42          1.52  1.52  1.52  1.52  1.21  1.52  0.91  0.91  0.91  0.91  
43          1.52  1.52  1.52  1.52  1.21  1.52  0.91  0.91  0.91  0.91  
44          1.52  1.52  1.52  1.52  1.21  1.52  0.91  0.91  0.91  0.91  
45          1.52  1.52  1.52  1.52  1.21  1.52  0.91  0.91  0.91  0.91  
; # downloads resource k can do at front f in time t if intermediate time slot

param E:= 

[*,*,F1 ]:  K1    K2    K3    K4    K5    K6    K7    K8    K9    K10   :=
1           0.22  0.60  0.15  0.29  0.53  0.42  0.22  0.44  0.42  0.45  
2           0.22  0.60  0.15  0.29  0.53  0.42  0.22  0.44  0.42  0.45  
3           0.22  0.60  0.15  0.29  0.53  0.42  0.22  0.44  0.42  0.45  
4           0.22  0.60  0.15  0.29  0.53  0.42  0.22  0.44  0.42  0.45  
5           0.22  0.60  0.15  0.29  0.53  0.42  0.22  0.44  0.42  0.45  
6           0.22  0.60  0.15  0.29  0.53  0.42  0.22  0.44  0.42  0.45  
7           0.22  0.60  0.15  0.29  0.53  0.42  0.22  0.44  0.42  0.45  
8           0.22  0.60  0.15  0.29  0.53  0.42  0.22  0.44  0.42  0.45  
9           0.22  0.60  0.15  0.29  0.53  0.42  0.22  0.44  0.42  0.45  
10          0.22  0.60  0.15  0.29  0.53  0.42  0.22  0.44  0.42  0.45  
11          0.22  0.60  0.15  0.29  0.53  0.42  0.22  0.44  0.42  0.45  
12          0.22  0.60  0.15  0.29  0.53  0.42  0.22  0.44  0.42  0.45  
13          0.22  0.60  0.15  0.29  0.53  0.42  0.22  0.44  0.42  0.45  
14          0.22  0.60  0.15  0.29  0.53  0.42  0.22  0.44  0.42  0.45  
15          0.22  0.60  0.15  0.29  0.53  0.42  0.22  0.44  0.42  0.45  
16          0.22  0.60  0.15  0.29  0.53  0.42  0.22  0.44  0.42  0.45  
17          0.22  0.60  0.15  0.29  0.53  0.42  0.22  0.44  0.42  0.45  
18          0.22  0.60  0.15  0.29  0.53  0.42  0.22  0.44  0.42  0.45  
19          0.22  0.60  0.15  0.29  0.53  0.42  0.22  0.44  0.42  0.45  
20          0.22  0.60  0.15  0.29  0.53  0.42  0.22  0.44  0.42  0.45  
21          0.22  0.60  0.15  0.29  0.53  0.42  0.22  0.44  0.42  0.45  
22          0.22  0.60  0.15  0.29  0.53  0.42  0.22  0.44  0.42  0.45  
23          0.22  0.60  0.15  0.29  0.53  0.42  0.22  0.44  0.42  0.45  
24          0.22  0.60  0.15  0.29  0.53  0.42  0.22  0.44  0.42  0.45  
25          0.21  0.57  0.14  0.28  0.51  0.40  0.21  0.41  0.40  0.43  
26          0.21  0.57  0.14  0.28  0.51  0.40  0.21  0.41  0.40  0.43  
27          0.21  0.57  0.14  0.28  0.51  0.40  0.21  0.41  0.40  0.43  
28          0.21  0.57  0.14  0.28  0.51  0.40  0.21  0.41  0.40  0.43  
29          0.21  0.57  0.14  0.28  0.51  0.40  0.21  0.41  0.40  0.43  
30          0.21  0.57  0.14  0.28  0.51  0.40  0.21  0.41  0.40  0.43  
31          0.21  0.57  0.14  0.28  0.51  0.40  0.21  0.41  0.40  0.43  
32          0.21  0.57  0.14  0.28  0.51  0.40  0.21  0.41  0.40  0.43  
33          0.21  0.57  0.14  0.28  0.51  0.40  0.21  0.41  0.40  0.43  
34          0.22  0.60  0.15  0.29  0.53  0.42  0.22  0.44  0.42  0.45  
35          0.22  0.60  0.15  0.29  0.53  0.42  0.22  0.44  0.42  0.45  
36          0.22  0.60  0.15  0.29  0.53  0.42  0.22  0.44  0.42  0.45  
37          0.22  0.60  0.15  0.29  0.53  0.42  0.22  0.44  0.42  0.45  
38          0.22  0.60  0.15  0.29  0.53  0.42  0.22  0.44  0.42  0.45  
39          0.22  0.60  0.15  0.29  0.53  0.42  0.22  0.44  0.42  0.45  
40          0.22  0.60  0.15  0.29  0.53  0.42  0.22  0.44  0.42  0.45  
41          0.22  0.60  0.15  0.29  0.53  0.42  0.22  0.44  0.42  0.45  
42          0.22  0.60  0.15  0.29  0.53  0.42  0.22  0.44  0.42  0.45  
43          0.22  0.60  0.15  0.29  0.53  0.42  0.22  0.44  0.42  0.45  
44          0.22  0.60  0.15  0.29  0.53  0.42  0.22  0.44  0.42  0.45  
45          0.22  0.60  0.15  0.29  0.53  0.42  0.22  0.44  0.42  0.45  

[*,*,F2 ]:  K1    K2    K3    K4    K5    K6    K7    K8    K9    K10   :=
1           0.16  0.52  0.20  0.23  0.51  0.45  0.19  0.41  0.42  0.44  
2           0.16  0.52  0.20  0.23  0.51  0.45  0.19  0.41  0.42  0.44  
3           0.16  0.52  0.20  0.23  0.51  0.45  0.19  0.41  0.42  0.44  
4           0.16  0.52  0.20  0.23  0.51  0.45  0.19  0.41  0.42  0.44  
5           0.16  0.52  0.20  0.23  0.51  0.45  0.19  0.41  0.42  0.44  
6           0.16  0.52  0.20  0.23  0.51  0.45  0.19  0.41  0.42  0.44  
7           0.16  0.52  0.20  0.23  0.51  0.45  0.19  0.41  0.42  0.44  
8           0.16  0.52  0.20  0.23  0.51  0.45  0.19  0.41  0.42  0.44  
9           0.16  0.52  0.20  0.23  0.51  0.45  0.19  0.41  0.42  0.44  
10          0.16  0.52  0.20  0.23  0.51  0.45  0.19  0.41  0.42  0.44  
11          0.16  0.52  0.20  0.23  0.51  0.45  0.19  0.41  0.42  0.44  
12          0.16  0.52  0.20  0.23  0.51  0.45  0.19  0.41  0.42  0.44  
13          0.16  0.52  0.20  0.23  0.51  0.45  0.19  0.41  0.42  0.44  
14          0.16  0.52  0.20  0.23  0.51  0.45  0.19  0.41  0.42  0.44  
15          0.16  0.52  0.20  0.23  0.51  0.45  0.19  0.41  0.42  0.44  
16          0.16  0.52  0.20  0.23  0.51  0.45  0.19  0.41  0.42  0.44  
17          0.16  0.52  0.20  0.23  0.51  0.45  0.19  0.41  0.42  0.44  
18          0.16  0.52  0.20  0.23  0.51  0.45  0.19  0.41  0.42  0.44  
19          0.16  0.52  0.20  0.23  0.51  0.45  0.19  0.41  0.42  0.44  
20          0.16  0.52  0.20  0.23  0.51  0.45  0.19  0.41  0.42  0.44  
21          0.16  0.52  0.20  0.23  0.51  0.45  0.19  0.41  0.42  0.44  
22          0.16  0.52  0.20  0.23  0.51  0.45  0.19  0.41  0.42  0.44  
23          0.16  0.52  0.20  0.23  0.51  0.45  0.19  0.41  0.42  0.44  
24          0.16  0.52  0.20  0.23  0.51  0.45  0.19  0.41  0.42  0.44  
25          0.15  0.50  0.19  0.22  0.48  0.43  0.18  0.39  0.40  0.41  
26          0.15  0.50  0.19  0.22  0.48  0.43  0.18  0.39  0.40  0.41  
27          0.15  0.50  0.19  0.22  0.48  0.43  0.18  0.39  0.40  0.41  
28          0.15  0.50  0.19  0.22  0.48  0.43  0.18  0.39  0.40  0.41  
29          0.15  0.50  0.19  0.22  0.48  0.43  0.18  0.39  0.40  0.41  
30          0.15  0.50  0.19  0.22  0.48  0.43  0.18  0.39  0.40  0.41  
31          0.15  0.50  0.19  0.22  0.48  0.43  0.18  0.39  0.40  0.41  
32          0.15  0.50  0.19  0.22  0.48  0.43  0.18  0.39  0.40  0.41  
33          0.15  0.50  0.19  0.22  0.48  0.43  0.18  0.39  0.40  0.41  
34          0.16  0.52  0.20  0.23  0.51  0.45  0.19  0.41  0.42  0.44  
35          0.16  0.52  0.20  0.23  0.51  0.45  0.19  0.41  0.42  0.44  
36          0.16  0.52  0.20  0.23  0.51  0.45  0.19  0.41  0.42  0.44  
37          0.16  0.52  0.20  0.23  0.51  0.45  0.19  0.41  0.42  0.44  
38          0.16  0.52  0.20  0.23  0.51  0.45  0.19  0.41  0.42  0.44  
39          0.16  0.52  0.20  0.23  0.51  0.45  0.19  0.41  0.42  0.44  
40          0.16  0.52  0.20  0.23  0.51  0.45  0.19  0.41  0.42  0.44  
41          0.16  0.52  0.20  0.23  0.51  0.45  0.19  0.41  0.42  0.44  
42          0.16  0.52  0.20  0.23  0.51  0.45  0.19  0.41  0.42  0.44  
43          0.16  0.52  0.20  0.23  0.51  0.45  0.19  0.41  0.42  0.44  
44          0.16  0.52  0.20  0.23  0.51  0.45  0.19  0.41  0.42  0.44  
45          0.16  0.52  0.20  0.23  0.51  0.45  0.19  0.41  0.42  0.44  

[*,*,F3 ]:  K1    K2    K3    K4    K5    K6    K7    K8    K9    K10   :=
1           0.21  0.55  0.20  0.23  0.56  0.56  0.28  0.46  0.35  0.44  
2           0.21  0.55  0.20  0.23  0.56  0.56  0.28  0.46  0.35  0.44  
3           0.21  0.55  0.20  0.23  0.56  0.56  0.28  0.46  0.35  0.44  
4           0.21  0.55  0.20  0.23  0.56  0.56  0.28  0.46  0.35  0.44  
5           0.21  0.55  0.20  0.23  0.56  0.56  0.28  0.46  0.35  0.44  
6           0.21  0.55  0.20  0.23  0.56  0.56  0.28  0.46  0.35  0.44  
7           0.21  0.55  0.20  0.23  0.56  0.56  0.28  0.46  0.35  0.44  
8           0.21  0.55  0.20  0.23  0.56  0.56  0.28  0.46  0.35  0.44  
9           0.21  0.55  0.20  0.23  0.56  0.56  0.28  0.46  0.35  0.44  
10          0.21  0.55  0.20  0.23  0.56  0.56  0.28  0.46  0.35  0.44  
11          0.21  0.55  0.20  0.23  0.56  0.56  0.28  0.46  0.35  0.44  
12          0.21  0.55  0.20  0.23  0.56  0.56  0.28  0.46  0.35  0.44  
13          0.21  0.55  0.20  0.23  0.56  0.56  0.28  0.46  0.35  0.44  
14          0.21  0.55  0.20  0.23  0.56  0.56  0.28  0.46  0.35  0.44  
15          0.21  0.55  0.20  0.23  0.56  0.56  0.28  0.46  0.35  0.44  
16          0.21  0.55  0.20  0.23  0.56  0.56  0.28  0.46  0.35  0.44  
17          0.21  0.55  0.20  0.23  0.56  0.56  0.28  0.46  0.35  0.44  
18          0.21  0.55  0.20  0.23  0.56  0.56  0.28  0.46  0.35  0.44  
19          0.21  0.55  0.20  0.23  0.56  0.56  0.28  0.46  0.35  0.44  
20          0.21  0.55  0.20  0.23  0.56  0.56  0.28  0.46  0.35  0.44  
21          0.21  0.55  0.20  0.23  0.56  0.56  0.28  0.46  0.35  0.44  
22          0.21  0.55  0.20  0.23  0.56  0.56  0.28  0.46  0.35  0.44  
23          0.21  0.55  0.20  0.23  0.56  0.56  0.28  0.46  0.35  0.44  
24          0.21  0.55  0.20  0.23  0.56  0.56  0.28  0.46  0.35  0.44  
25          0.20  0.52  0.19  0.22  0.53  0.53  0.27  0.44  0.34  0.41  
26          0.20  0.52  0.19  0.22  0.53  0.53  0.27  0.44  0.34  0.41  
27          0.20  0.52  0.19  0.22  0.53  0.53  0.27  0.44  0.34  0.41  
28          0.20  0.52  0.19  0.22  0.53  0.53  0.27  0.44  0.34  0.41  
29          0.20  0.52  0.19  0.22  0.53  0.53  0.27  0.44  0.34  0.41  
30          0.20  0.52  0.19  0.22  0.53  0.53  0.27  0.44  0.34  0.41  
31          0.20  0.52  0.19  0.22  0.53  0.53  0.27  0.44  0.34  0.41  
32          0.20  0.52  0.19  0.22  0.53  0.53  0.27  0.44  0.34  0.41  
33          0.20  0.52  0.19  0.22  0.53  0.53  0.27  0.44  0.34  0.41  
34          0.21  0.55  0.20  0.23  0.56  0.56  0.28  0.46  0.35  0.44  
35          0.21  0.55  0.20  0.23  0.56  0.56  0.28  0.46  0.35  0.44  
36          0.21  0.55  0.20  0.23  0.56  0.56  0.28  0.46  0.35  0.44  
37          0.21  0.55  0.20  0.23  0.56  0.56  0.28  0.46  0.35  0.44  
38          0.21  0.55  0.20  0.23  0.56  0.56  0.28  0.46  0.35  0.44  
39          0.21  0.55  0.20  0.23  0.56  0.56  0.28  0.46  0.35  0.44  
40          0.21  0.55  0.20  0.23  0.56  0.56  0.28  0.46  0.35  0.44  
41          0.21  0.55  0.20  0.23  0.56  0.56  0.28  0.46  0.35  0.44  
42          0.21  0.55  0.20  0.23  0.56  0.56  0.28  0.46  0.35  0.44  
43          0.21  0.55  0.20  0.23  0.56  0.56  0.28  0.46  0.35  0.44  
44          0.21  0.55  0.20  0.23  0.56  0.56  0.28  0.46  0.35  0.44  
45          0.21  0.55  0.20  0.23  0.56  0.56  0.28  0.46  0.35  0.44  
; # downloads resource k can do at front f in time t if starting or ending flight

param W: 
	F1        F2        F3        :=
1	721.58    721.58    721.58    
2	2886.32   2886.32   2886.32   
3	2886.32   2886.32   2886.32   
4	2886.32   2886.32   2886.32   
5	2886.32   2886.32   2886.32   
6	2886.32   2886.32   2886.32   
7	2886.32   2886.32   2886.32   
8	2886.32   2886.32   2886.32   
9	2886.32   2886.32   2886.32   
10	2886.32   2886.32   2886.32   
11	2886.32   2886.32   2886.32   
12	2886.32   2886.32   2886.32   
13	2886.32   2886.32   2886.32   
14	2886.32   2886.32   2886.32   
15	2886.32   2886.32   2886.32   
16	2886.32   2886.32   2886.32   
17	2886.32   2886.32   2886.32   
18	2886.32   2886.32   2886.32   
19	1282.81   1282.81   1282.81   
20	1282.81   1282.81   1282.81   
21	1282.81   1282.81   1282.81   
22	1282.81   1282.81   1282.81   
23	1282.81   1282.81   1282.81   
24	1282.81   1282.81   1282.81   
25	1282.81   1282.81   1282.81   
26	1282.81   1282.81   1282.81   
27	1282.81   1282.81   1282.81   
28	1282.81   1282.81   1282.81   
29	1282.81   1282.81   1282.81   
30	1282.81   1282.81   1282.81   
31	1282.81   1282.81   1282.81   
32	1282.81   1282.81   1282.81   
33	1282.81   1282.81   1282.81   
34	1282.81   1282.81   1282.81   
35	1282.81   1282.81   1282.81   
36	1282.81   1282.81   1282.81   
37	1282.81   1282.81   1282.81   
38	1282.81   1282.81   1282.81   
39	1282.81   1282.81   1282.81   
40	1282.81   1282.81   1282.81   
41	1282.81   1282.81   1282.81   
42	1282.81   1282.81   1282.81   
43	1282.81   1282.81   1282.81   
44	1282.81   1282.81   1282.81   
45	320.70    320.70    320.70    
; # water needed at front f in time slot t

param M := 100000000; 

param a1:= 10000000;

param a2:= 100;

param a3:= 0.0001;
